 C_N_H_Pb_I                             
   1.00000000000000     
    12.7029352188000004    0.0000000000000000    0.0000000000000000
     0.0000000000000000   12.7029352188000004    0.0000000000000000
     0.0000000000000000    0.0000000000000000   12.7029352188000004
   C    N    H    Pb   I 
     8     8    48     8    24
Direct
0.2215473722617225  0.2500000000000000  0.2644666322048835	T	T	T
0.2215473722617225  0.2500000000000000  0.7644666132048782	T	T	T
0.2215473722617225  0.7500000189999980  0.2644666322048835	T	T	T
0.2215473722617225  0.7500000189999980  0.7644666132048782	T	T	T
0.7215473902617171  0.2500000000000000  0.2644666322048835	T	T	T
0.7215473902617171  0.2500000000000000  0.7644666132048782	T	T	T
0.7215473902617171  0.7500000189999980  0.2644666322048835	T	T	T
0.7215473902617171  0.7500000189999980  0.7644666132048782	T	T	T
0.3292840211433176  0.2500000000000000  0.2181225909560081	T	T	T
0.3292840211433176  0.2500000000000000  0.7181226289560043	T	T	T
0.3292840211433176  0.7500000189999980  0.2181225909560081	T	T	T
0.3292840211433176  0.7500000189999980  0.7181226289560043	T	T	T
0.8292839841433178  0.2500000000000000  0.2181225909560081	T	T	T
0.8292839841433178  0.2500000000000000  0.7181226289560043	T	T	T
0.8292839841433178  0.7500000189999980  0.2181225909560081	T	T	T
0.8292839841433178  0.7500000189999980  0.7181226289560043	T	T	T
0.2285731077369139  0.2500000000000000  0.3505994899012584	T	T	T
0.2285731077369139  0.2500000000000000  0.8505994519012624	T	T	T
0.2285731077369139  0.7500000189999980  0.3505994899012584	T	T	T
0.2285731077369139  0.7500000189999980  0.8505994519012624	T	T	T
0.7285731077369139  0.2500000000000000  0.3505994899012584	T	T	T
0.7285731077369139  0.2500000000000000  0.8505994519012624	T	T	T
0.7285731077369139  0.7500000189999980  0.3505994899012585	T	T	T
0.7285731077369139  0.7500000189999980  0.8505994519012624	T	T	T
0.1799159905885440  0.1789930366770701  0.2379836553401995	T	T	T
0.1799159905885440  0.1789930366770701  0.7379836923401994	T	T	T
0.1799159905885440  0.6789930176770644  0.2379836553401995	T	T	T
0.1799159905885440  0.6789930176770644  0.7379836923401994	T	T	T
0.6799160085885456  0.1789930366770701  0.2379836553401995	T	T	T
0.6799160085885456  0.1789930366770701  0.7379836923401994	T	T	T
0.6799160085885456  0.6789930176770644  0.2379836553401995	T	T	T
0.6799160085885456  0.6789930176770644  0.7379836923401994	T	T	T
0.1799159905885440  0.3210069823229347  0.2379836553401995	T	T	T
0.1799159905885440  0.3210069823229347  0.7379836923401994	T	T	T
0.1799159905885440  0.8210069453229361  0.2379836553401995	T	T	T
0.1799159905885440  0.8210069453229361  0.7379836923401994	T	T	T
0.6799160085885456  0.3210069823229347  0.2379836553401995	T	T	T
0.6799160085885456  0.3210069823229347  0.7379836923401994	T	T	T
0.6799160085885456  0.8210069453229361  0.2379836553401995	T	T	T
0.6799160085885456  0.8210069453229361  0.7379836923401994	T	T	T
0.3289742088231168  0.2500000000000000  0.1360784333983559	T	T	T
0.3289742088231168  0.2500000000000000  0.6360784803983562	T	T	T
0.3289742088231168  0.7500000189999980  0.1360784333983559	T	T	T
0.3289742088231168  0.7500000189999980  0.6360784803983562	T	T	T
0.8289741708231209  0.2500000000000000  0.1360784333983559	T	T	T
0.8289741708231209  0.2500000000000000  0.6360784803983562	T	T	T
0.8289741708231209  0.7500000189999980  0.1360784333983559	T	T	T
0.8289741708231209  0.7500000189999980  0.6360784803983562	T	T	T
0.3721464756053555  0.1834166802366253  0.2408915431671594	T	T	T
0.3721464756053555  0.1834166802366253  0.7408915621671572	T	T	T
0.3721464756053555  0.6834166432366189  0.2408915431671594	T	T	T
0.3721464756053555  0.6834166432366189  0.7408915621671572	T	T	T
0.8721464756053554  0.1834166802366253  0.2408915431671594	T	T	T
0.8721464756053554  0.1834166802366253  0.7408915621671572	T	T	T
0.8721464756053554  0.6834166432366189  0.2408915431671594	T	T	T
0.8721464756053554  0.6834166432366189  0.7408915621671572	T	T	T
0.3721464756053555  0.3165833197633747  0.2408915431671594	T	T	T
0.3721464756053555  0.3165833197633747  0.7408915621671572	T	T	T
0.3721464756053555  0.8165833197633745  0.2408915431671594	T	T	T
0.3721464756053555  0.8165833197633745  0.7408915621671572	T	T	T
0.8721464756053554  0.3165833197633747  0.2408915431671594	T	T	T
0.8721464756053554  0.3165833197633747  0.7408915621671572	T	T	T
0.8721464756053554  0.8165833197633745  0.2408915431671594	T	T	T
0.8721464756053554  0.8165833197633745  0.7408915621671572	T	T	T
0.0019424340709943  0.0000000000000000 -0.0018982432693035	T	T	T
0.0019424340709943  0.0000000000000000  0.4981017567306964	T	T	T
0.0019424340709943  0.5000000000000000 -0.0018982432693035	T	T	T
0.0019424340709943  0.5000000000000000  0.4981017567306964	T	T	T
0.5019424340709943  0.0000000000000000 -0.0018982432693035	T	T	T
0.5019424340709943  0.0000000000000000  0.4981017567306964	T	T	T
0.5019424340709943  0.5000000000000000 -0.0018982432693035	T	T	T
0.5019424340709943  0.5000000000000000  0.4981017567306964	T	T	T
0.2456518998419767  0.0000000000000000  0.0198403909509057	T	T	T
0.2456518998419767  0.0000000000000000  0.5198403859509090	T	T	T
0.2456518998419767  0.5000000000000000  0.0198403909509057	T	T	T
0.2456518998419767  0.5000000000000000  0.5198403859509090	T	T	T
0.7456518998419768  0.0000000000000000  0.0198403909509057	T	T	T
0.7456518998419768  0.0000000000000000  0.5198403859509090	T	T	T
0.7456518998419768  0.5000000000000000  0.0198403909509057	T	T	T
0.7456518998419768  0.5000000000000000  0.5198403859509090	T	T	T
0.4840457714058410  0.2500000000000000  0.4801990986282785	T	T	T
0.4840457714058410  0.2500000000000000  0.9801991366282747	T	T	T
0.4840457714058410  0.7500000189999980  0.4801990986282785	T	T	T
0.4840457714058410  0.7500000189999980  0.9801991366282747	T	T	T
0.9840457714058413  0.2500000000000000  0.4801990986282785	T	T	T
0.9840457714058413  0.2500000000000000  0.9801991366282747	T	T	T
0.9840457714058413  0.7500000189999980  0.4801990986282785	T	T	T
0.9840457714058413  0.7500000189999980  0.9801991366282747	T	T	T
0.4793303703283118  0.0000000000000000  0.2496457652148968	T	T	T
0.4793303703283118  0.0000000000000000  0.7496457842149016	T	T	T
0.4793303703283118  0.5000000000000000  0.2496457652148968	T	T	T
0.4793303703283118  0.5000000000000000  0.7496457842149016	T	T	T
0.9793304073283116  0.0000000000000000  0.2496457652148968	T	T	T
0.9793304073283116  0.0000000000000000  0.7496457842149016	T	T	T
0.9793304073283116  0.5000000000000000  0.2496457652148968	T	T	T
0.9793304073283116  0.5000000000000000  0.7496457842149016	T	T	T
